/* Objective function */
min: tt;

/* Variable bounds */

arco_02: t2>= t0 + 4 ; arco_23: t3>= t2 + 7 ;
arco_s0: t0>= ts + 0 ; arco_04: t4>= t0 + 4 ;
arco_42: t2>= t4 + 9 ; arco_43: t3>= t4 + 9 ;
arco_3t: tt>= t3 + 2 ; arco_s6: t6>= ts + 0 ;
arco_74: t4>= t7 + 6 ; arco_83: t3>= t8 + 4 ;
arco_9t: tt>= t9 + 2 ; arco_67: t7>= t6 + 5 ;
arco_78: t8>= t7 + 6 ; arco_89: t9>= t8 + 4 ;
arco_610: t10>= t6 + 5 ; arco_108: t8>= t10 + 8 ;
arco_119: t9>= t11 + 7 ; arco_1011: t11>= t10 + 8;



